p edge 160 644
c 2942
e 0 135 1 3
e 0 138 1 10
e 1 143 1 11
e 1 17 2 12
e 1 5 2 14
e 2 134 2 16
e 2 147 7 17
e 2 15 2 20
e 2 91 2 21
e 3 73 3 23
e 3 105 1 24
e 3 17 1 25
e 3 146 2 26
e 4 41 1 27
e 4 82 46 29
e 4 72 14 31
e 5 149 1 34
e 5 100 29 35
e 5 85 1 36
e 6 128 2 37
e 6 117 1 38
e 6 47 2 39
e 6 19 1 41
e 6 67 1 42
e 6 104 2 43
e 7 131 38 47
e 8 69 1 51
e 8 49 1 53
e 8 17 1 55
e 8 101 1 57
e 8 109 1 58
e 8 137 39 59
e 8 138 1 60
e 9 41 39 61
e 9 142 22 62
e 9 134 16 63
e 9 68 1 64
e 9 66 42 65
e 9 72 41 66
e 9 107 47 67
e 9 39 38 68
e 9 49 46 69
e 9 119 13 70
e 10 155 1 71
e 10 51 1 73
e 10 123 2 74
e 10 42 1 75
e 10 131 45 77
e 10 137 26 78
e 11 74 1 82
e 11 69 1 83
e 11 149 1 86
e 12 88 1 88
e 12 59 2 89
e 12 87 1 90
e 12 19 2 91
e 12 93 1 92
e 12 141 2 93
e 12 143 1 94
e 12 150 2 95
e 13 157 1 96
e 13 124 1 100
e 14 153 1 102
e 14 22 2 103
e 14 50 2 107
e 15 110 1 111
e 15 151 1 112
e 15 147 2 117
e 16 34 1 121
e 16 52 10 122
e 16 103 2 124
e 16 135 1 125
e 16 145 2 126
e 16 157 1 127
e 17 36 1 128
e 17 118 1 129
e 17 41 2 131
e 17 141 2 132
e 17 143 1 133
e 18 114 1 135
e 18 24 1 136
e 18 96 2 137
e 18 37 1 139
e 18 116 1 140
e 19 24 1 141
e 19 63 1 143
e 20 88 1 144
e 20 120 2 145
e 20 83 1 146
e 20 57 1 147
e 20 24 1 148
e 20 52 37 149
e 20 136 1 151
e 21 107 1 156
e 21 120 1 157
e 21 123 2 158
e 21 148 44 159
e 22 104 1 160
e 22 31 1 161
e 22 149 2 163
e 22 61 1 164
e 22 134 1 166
e 23 34 1 168
e 23 90 1 169
e 23 40 26 170
e 23 115 1 171
e 23 117 1 172
e 24 114 1 175
e 24 147 38 176
e 24 46 1 177
e 24 130 1 179
e 24 153 1 180
e 25 158 1 181
e 25 85 1 182
e 25 126 1 183
e 25 40 17 184
e 25 59 1 185
e 25 98 1 186
e 25 114 1 188
e 25 130 1 189
e 25 147 4 190
e 26 64 1 195
e 26 121 1 197
e 27 56 2 198
e 27 124 2 200
e 27 120 2 201
e 27 39 3 202
e 27 53 1 203
e 27 108 3 205
e 28 151 1 206
e 28 60 13 209
e 28 157 1 214
e 29 63 1 218
e 30 31 1 221
e 30 110 2 222
e 30 76 1 223
e 30 82 14 224
e 30 91 1 225
e 31 75 2 227
e 31 44 2 228
e 31 60 5 229
e 31 59 1 230
e 31 64 1 231
e 31 96 2 232
e 32 149 1 233
e 32 72 36 236
e 32 63 1 237
e 32 131 1 238
e 33 110 1 240
e 33 49 1 241
e 33 52 11 244
e 34 54 1 245
e 34 41 1 247
e 34 112 2 248
e 34 121 2 249
e 35 82 33 254
e 35 128 1 255
e 36 110 1 259
e 37 150 1 261
e 37 77 36 262
e 37 52 5 265
e 37 155 45 267
e 39 141 6 274
e 39 107 16 275
e 39 40 11 276
e 39 52 7 277
e 39 73 14 278
e 40 99 47 280
e 40 148 8 282
e 40 62 42 285
e 40 144 13 288
e 41 64 1 289
e 41 153 1 291
e 41 57 1 292
e 41 73 43 293
e 41 103 1 295
e 41 134 1 296
e 42 62 1 297
e 42 99 38 298
e 42 84 1 299
e 42 151 1 300
e 43 47 1 301
e 43 85 1 304
e 44 104 1 305
e 44 61 2 307
e 44 127 1 308
e 45 120 1 311
e 45 121 1 312
e 45 61 1 313
e 45 127 1 316
e 45 136 1 317
e 46 72 29 318
e 46 73 7 319
e 46 156 2 323
e 47 115 1 325
e 47 151 1 326
e 47 60 44 328
e 47 76 1 329
e 47 146 2 331
e 47 150 1 332
e 47 152 1 333
e 48 121 2 334
e 48 64 1 335
e 48 94 1 336
e 48 53 2 337
e 48 110 2 339
e 49 134 1 342
e 49 142 1 343
e 49 113 1 344
e 49 114 1 345
e 50 122 1 347
e 50 111 2 349
e 50 120 1 350
e 51 70 1 355
e 52 135 24 358
e 52 137 4 359
e 52 148 27 360
e 52 66 17 361
e 52 73 20 362
e 53 97 2 363
e 53 93 2 364
e 53 102 2 365
e 53 139 2 366
e 54 106 1 373
e 54 121 2 374
e 55 97 1 376
e 55 57 2 378
e 55 119 1 381
e 55 149 1 382
e 56 76 2 385
e 56 62 2 386
e 56 133 2 387
e 57 115 1 388
e 57 105 1 389
e 57 119 2 391
e 59 90 1 400
e 60 107 10 402
e 60 126 20 403
e 60 90 18 404
e 60 103 15 405
e 60 112 21 407
e 60 140 41 408
e 60 155 36 409
e 61 122 1 410
e 61 114 2 411
e 61 97 1 412
e 61 116 1 413
e 62 120 2 415
e 62 70 1 417
e 62 137 36 420
e 62 153 1 422
e 63 65 1 424
e 63 104 1 425
e 63 122 2 426
e 64 101 2 427
e 64 87 1 428
e 65 139 1 430
e 65 116 1 431
e 65 87 1 432
e 65 80 44 433
e 66 158 29 435
e 66 134 34 436
e 66 126 6 437
e 66 154 30 438
e 66 80 29 439
e 66 100 39 440
e 66 148 38 441
e 67 139 1 443
e 67 85 1 446
e 68 72 2 450
e 68 156 2 451
e 69 143 2 454
e 69 87 1 455
e 69 106 1 456
e 69 107 6 457
e 69 142 1 458
e 70 93 1 459
e 70 132 1 460
e 70 145 1 461
e 70 154 39 462
e 71 120 2 463
e 71 149 1 464
e 72 106 15 468
e 72 154 12 469
e 72 99 41 471
e 72 100 28 472
e 73 130 1 473
e 73 158 17 476
e 74 137 43 477
e 74 151 3 478
e 74 158 1 479
e 74 77 1 480
e 74 93 1 481
e 74 95 1 482
e 75 126 1 487
e 76 103 1 489
e 76 135 1 490
e 77 127 1 493
e 78 154 14 494
e 78 90 2 495
e 80 137 8 500
e 81 90 1 506
e 82 137 17 509
e 82 92 21 510
e 84 157 1 514
e 84 139 1 516
e 85 124 2 517
e 85 109 31 518
e 85 90 1 519
e 86 107 2 520
e 86 123 1 522
e 87 139 1 528
e 88 104 1 529
e 89 109 15 534
e 89 145 2 536
e 91 157 1 537
e 92 94 1 541
e 92 97 2 542
e 94 122 1 545
e 95 97 1 547
e 95 119 1 548
e 96 100 49 550
e 96 101 2 551
e 97 157 1 553
e 98 146 2 555
e 99 115 21 556
e 99 154 36 557
e 99 136 35 558
e 99 132 25 559
e 100 142 3 562
e 100 152 38 563
e 101 158 1 564
e 101 122 1 565
e 101 104 1 566
e 101 124 1 567
e 102 126 1 568
e 102 119 1 569
e 102 138 1 572
e 103 124 2 575
e 104 127 2 576
e 106 150 1 579
e 107 135 1 581
e 107 159 1 582
e 108 137 47 583
e 108 146 2 584
e 108 123 1 586
e 109 126 22 587
e 109 152 35 588
e 109 111 3 590
e 109 117 8 591
e 110 124 2 592
e 113 153 1 594
e 114 128 1 595
e 114 147 11 596
e 115 119 1 597
e 115 148 3 598
e 115 156 1 599
e 116 131 16 601
e 117 143 1 602
e 117 120 2 603
e 117 136 1 604
e 118 151 1 607
e 119 123 1 608
e 119 132 2 609
e 119 137 12 610
e 119 140 1 611
e 119 151 1 612
e 120 143 1 613
e 120 122 2 614
e 120 135 2 615
e 121 144 2 616
e 123 148 11 618
e 123 156 2 619
e 126 144 2 622
e 126 131 9 623
e 128 143 1 624
e 128 129 1 625
e 128 153 1 626
e 131 158 41 630
e 139 148 9 633
e 139 159 1 634
e 142 154 43 635
e 142 146 2 636
e 143 153 1 637
e 146 150 2 638
e 146 149 1 639
e 146 155 1 640
e 150 151 1 642
e 150 157 1 643
